md conv molq 
vectors 
6.4979652199746347, 0.0, 0.0
0.0, 11.254805906811541, 0.0
0.0, 0.0, 80.00
cartesian region 1
D          4.66200        5.89900        2.78900
D          1.84600        8.89500        2.83400
D          0.26700        5.10600        2.87000
D          3.33900        1.55200        2.76900
cartesian region 2 rigid
C          0.00000        0.00000        0.00000
C          1.85700        1.60800        0.00000
C          6.03400        6.16300        0.00000
C          0.00000        3.75200        0.00000
C          5.10600       10.98700        0.00000
C          5.57000        8.57500        0.00000
C          0.46400        1.34000        0.00000
C          1.39200        4.02000        0.00000
C          3.71300        6.96700        0.00000
C          0.92800        6.43100        0.00000
C          0.46400        8.84300        0.00000
C          2.78500        0.53600        0.00000
C          4.17700        0.80400        0.00000
C          2.32100        2.94800        0.00000
C          3.71300        3.21600        0.00000
C          1.85700        5.35900        0.00000
C          3.24900        5.62700        0.00000
C          1.39200        7.77100        0.00000
C          2.78500        8.03900        0.00000
C          0.92800       10.18300        0.00000
C          2.32100       10.45100        0.00000
C          4.64100        2.14400        0.00000
C          6.03400        2.41200        0.00000
C          4.17700        4.55600        0.00000
C          5.57000        4.82300        0.00000
C          5.10600        7.23500        0.00000
C          3.24900        9.37900        0.00000
C          4.64100        9.64700        0.00000

supercell
4 2 1
#library graphite.lib 
library KC24D.lib
#
#  Use a 1 Angstrom taper on the short range potential for smoothness
#
cutp 12.0 1.0
#
#  MD options
#
integrator leapfrog verlet
ensemble nvt 0.05
temperature 7.0 
produ 5.000 ps
timestep 0.001 ps
sample 0.01 ps
write 0.01 ps

output movie xyz surf.xyz
output history surf.his
dump every 1 surf.res