md conv molq 
vectors
38.987791 0.000000 0.000000
0.000000 33.764418 0.000000
0.000000 0.000000 9.040000
cartesian
C             0.162620500         0.203852300         0.025992000
C             0.161160800        11.457890000         0.020134900
C             0.160538300        22.711879000         8.926360200
C             6.658820600         0.202641400         8.974085200
C             6.658436700        11.457310000         8.992171100
C             6.658874800        22.712628000         8.933998200
C            13.154950000         0.204416100         0.059504400
C            13.155064000        11.458387000         8.970206300
C            13.158028000        22.713818000         8.964573400
C            19.655218000         0.204251200         0.035630000
C            19.654633000        11.460866000         0.032116800
C            19.656036000        22.714257000         8.959059600
C            26.154189000         0.205415200         9.013662500
C            26.153407000        11.460249000         8.961976200
C            26.151317000        22.715242000         8.914330100
C            32.649879000         0.204119900         0.015135100
C            32.651186000        11.459288000         8.911469900
C            32.650263000        22.712451000         8.922208500
C             2.018740200         1.811943200         0.023249900
C             2.018514600        13.065295000         9.034233500
C             2.016951300        24.317919000         9.009769000
C             8.514436500         1.811539900         9.019148800
C             8.515188600        13.066215000         8.982745900
C             8.515640200        24.320574000         8.959753800
C            15.012211000         1.812733100         0.053752400
C            15.012604000        13.066623000         8.991525500
C            15.013310000        24.321404000         9.007365900
C            21.513041000         1.812497200         0.027304100
C            21.511829000        13.068901000         0.038854600
C            21.511882000        24.321385000         8.981410200
C            28.010351000         1.813104300         8.971710400
C            28.009058000        13.067211000         8.982492700
C            28.009203000        24.320649000         8.923191400
C            34.507539000         1.811836600         0.026094900
C            34.505727000        13.066872000         0.011694300
C            34.505775000        24.319033000         8.987852100
C             6.193473200         6.367769000         8.929954800
C             6.195269400        17.620091000         8.936913700
C             6.194817000        28.875250000         0.031492000
C            12.691343000         6.366206400         9.030745200
C            12.693510000        17.621307000         9.006628900
C            12.692655000        28.875192000         0.023046800
C            19.190584000         6.367961800         0.015269600
C            19.191066000        17.623955000         9.029377400
C            19.191140000        28.875905000         0.057414700
C            25.689362000         6.369012900         8.996411000
C            25.689516000        17.622948000         0.008787000
C            25.688574000        28.877410000         9.009837500
C            32.185683000         6.368115500         9.001329600
C            32.185860000        17.621597000         8.966045500
C            32.186095000        28.876661000         9.018478000
C            38.686279000         6.369646800         0.004034200
C            38.685244000        17.619898000         8.951119600
C            38.684533000        28.874901000         0.011503500
C             6.658378600         3.954748500         8.979079200
C             6.659925100        15.208729000         8.998750800
C             6.659234700        26.463193000         9.037546100
C            13.156611000         3.954578400         8.939907100
C            13.157388000        15.210833000         8.887940400
C            13.158726000        26.466373000         8.875461000
C            19.655232000         3.955880200         0.016121500
C            19.655287000        15.212241000         8.995995200
C            19.654662000        26.464015000         0.010146000
C            26.153607000         3.956610700         8.969906800
C            26.153999000        15.210762000         8.952392700
C            26.154050000        26.464417000         9.034990900
C            32.650886000         3.956305300         9.019975000
C            32.649726000        15.210311000         8.939999400
C            32.650817000        26.466176000         8.908961700
C             0.162067200         3.956532400         0.006780600
C             0.161667900        15.209732000         0.006288000
C             0.161033600        26.461543000         9.039400600
C             5.265360600        11.190622000         9.018418300
C             5.266749200        22.443747000         8.983739300
C             5.268513000        33.699769000         0.022213400
C            11.764919000        11.189801000         8.858970300
C            11.765041000        22.445256000         8.888845200
C            11.762663000        33.700550000         0.044785700
C            18.261546000        11.191439000         9.022699300
C            18.261216000        22.445373000         8.906871000
C            18.261994000        33.700861000         0.035142700
C            24.760066000        11.192128000         8.880839800
C            24.760978000        22.446499000         9.013620200
C            24.760703000        33.701631000         9.035346600
C            31.257461000        11.190154000         8.880948300
C            31.259576000        22.445270000         9.005290400
C            31.257746000        33.700682000         9.011294700
C            37.755747000        11.190407000         0.010620600
C            37.756579000        22.442025000         8.996689600
C            37.757385000        33.700118000         0.025035900
C             5.730304200         8.780323600         8.942490500
C             5.730631500        20.032600000         8.987947300
C             5.730956000        31.288258000         0.007066300
C            12.227703000         8.778658100         8.959341000
C            12.229056000        20.033318000         9.029843500
C            12.226789000        31.287242000         0.051088400
C            18.726321000         8.780016100         0.017498000
C            18.727504000        20.034821000         9.039931900
C            18.726853000        31.288377000         0.051107700
C            25.225617000         8.780814800         8.980318300
C            25.226640000        20.034501000         9.014388300
C            25.223817000        31.289063000         8.980242100
C            31.721593000         8.779155800         8.920922200
C            31.722593000        20.033475000         9.004792000
C            31.723952000        31.288565000         8.956908400
C            38.219810000         8.779518400         8.978243400
C            38.221094000        20.031587000         8.974936200
C            38.220837000        31.288068000         0.028709800
C             0.626923900         1.543794000         0.022192400
C             0.625747700        12.797679000         0.032428100
C             0.625196200        24.048569000         9.023633000
C             7.123343200         1.542954600         8.987837000
C             7.122653700        12.797397000         8.977829900
C             7.123623700        24.053707000         8.878357200
C            13.620194000         1.544153400         0.016028600
C            13.619948000        12.798741000         8.984823500
C            13.620568000        24.053985000         9.013661600
C            20.119881000         1.544319000         0.036137900
C            20.118880000        12.800160000         0.002811900
C            20.119937000        24.052002000         9.034733000
C            26.617831000         1.544967200         8.999043800
C            26.617603000        12.799129000         9.024795800
C            26.617557000        24.052629000         8.986343100
C            33.114678000         1.543723900         9.033862000
C            33.114312000        12.799140000         8.978316800
C            33.114352000        24.052082000         8.916144900
C             1.554317600         4.224446600         9.028778200
C             1.554528300        15.477574000         0.005623000
C             1.553291300        26.729732000         0.012382600
C             8.051163700         4.222917700         8.993492800
C             8.050051000        15.477637000         8.936099100
C             8.052214200        26.730891000         0.015478200
C            14.549815000         4.223420500         8.992402500
C            14.548711000        15.477955000         8.983934600
C            14.551056000        26.732727000         8.981882000
C            21.048441000         4.224327400         0.007140200
C            21.047651000        15.480268000         0.016768500
C            21.045643000        26.733932000         8.966095700
C            27.546414000         4.225151600         9.010877700
C            27.545973000        15.478768000         9.011865500
C            27.545118000        26.733611000         8.951182300
C            34.043033000         4.224510000         0.021556500
C            34.042984000        15.478031000         8.970451600
C            34.042257000        26.732798000         8.987932500
C             3.873151700         7.171603300         8.965804000
C             3.876637700        18.424940000         8.912754700
C             3.874165800        29.679696000         0.027666500
C            10.370514000         7.171504900         8.969659400
C            10.372140000        18.424964000         8.959599700
C            10.371869000        29.679226000         0.018530700
C            16.868927000         7.172230100         0.012516700
C            16.870749000        18.425565000         8.999392300
C            16.869798000        29.679630000         0.053573200
C            23.368466000         7.172502400         8.990932800
C            23.369442000        18.427102000         8.991874700
C            23.366019000        29.682254000         8.927887200
C            29.865893000         7.171116200         8.972878400
C            29.866368000        18.426926000         9.017738800
C            29.865989000        29.681436000         9.002213400
C            36.363466000         7.172238800         9.031808200
C            36.364292000        18.424015000         8.911473900
C            36.363715000        29.679554000         0.008167300
C             1.088807800         6.636265500         8.950337300
C             1.089642900        17.888590000         9.001033600
C             1.089334200        29.142931000         0.020136400
C             7.586423200         6.636156500         8.953890000
C             7.586834500        17.888517000         8.979227700
C             7.587337200        29.143008000         0.032611900
C            14.083908000         6.635063600         0.014597300
C            14.085819000        17.889079000         8.947801000
C            14.084613000        29.142792000         0.049538300
C            20.583896000         6.635920600         0.018326600
C            20.584512000        17.892509000         8.998042400
C            20.584325000        29.143614000         0.060382100
C            27.082087000         6.637180800         8.965105000
C            27.081299000        17.890620000         9.020949600
C            27.080815000        29.145338000         8.964958400
C            33.578017000         6.636931500         9.020290000
C            33.577779000        17.889270000         9.000911000
C            33.577947000        29.144239000         0.016498400
C             0.623192000         9.048245400         8.921070300
C             0.625816200        20.300224000         8.938211800
C             0.625262000        31.555829000         0.043613900
C             7.121602300         9.046171000         9.012896800
C             7.121912400        20.300188000         8.960907400
C             7.123322600        31.555177000         8.994419700
C            13.619594000         9.046931400         8.988271100
C            13.621961000        20.301467000         8.996292800
C            13.618747000        31.555750000         0.053596300
C            20.119933000         9.048215300         0.034542100
C            20.119004000        20.303219000         8.979598500
C            20.119637000        31.556473000         0.058317200
C            26.617066000         9.048733900         8.930637400
C            26.618403000        20.302228000         8.961705500
C            26.617485000        31.556821000         8.952898500
C            33.113985000         9.046823900         8.928350000
C            33.114379000        20.300768000         8.947158100
C            33.113697000        31.556670000         0.008933500
C             2.947140300         0.739560300         0.027889300
C             2.944159300        11.994336000         8.950818800
C             2.945915200        23.246275000         9.003031700
C             9.441819800         0.738707800         0.005426800
C             9.444190200        11.994241000         9.007676900
C             9.443995800        23.248933000         8.950073700
C            15.940459000         0.740395800         0.050953200
C            15.939973000        11.994589000         8.971141100
C            15.941164000        23.249421000         8.950547600
C            22.440553000         0.740104500         9.032896200
C            22.441045000        11.996560000         0.014864000
C            22.440516000        23.249847000         8.991936800
C            28.938760000         0.740672700         8.953825900
C            28.937064000        11.994375000         8.942464300
C            28.937138000        23.249871000         8.988997300
C            35.436038000         0.739795800         0.028322700
C            35.434297000        11.994186000         0.013382500
C            35.433628000        23.246440000         9.005462100
C             4.339518800         1.007695700         0.015739900
C             4.337571100        12.261977000         8.970309500
C             4.338984000        23.514149000         9.038418400
C            10.834299000         1.007609900         0.001812000
C            10.834984000        12.262740000         8.915293500
C            10.837372000        23.516300000         8.961824800
C            17.333853000         1.008424300         0.049304400
C            17.333194000        12.261995000         8.943640500
C            17.333598000        23.516325000         8.987068800
C            23.832222000         1.008774500         9.022559100
C            23.831172000        12.265346000         8.954582900
C            23.832482000        23.518183000         9.035074400
C            30.331024000         1.008569200         8.961219100
C            30.329524000        12.262283000         8.936510800
C            30.330596000        23.518030000         9.022810200
C            36.828743000         1.007830900         0.028503900
C            36.827066000        12.262589000         0.018386900
C            36.827083000        23.514185000         9.018328800
C             2.482115000         3.151125800         9.003906200
C             2.482901300        14.405179000         9.019071000
C             2.480674600        25.658770000         8.997523300
C             8.978904500         3.151034700         8.962771300
C             8.979593000        14.404203000         8.882215200
C             8.980588900        25.660107000         9.011556300
C            15.476677000         3.152227600         0.028472300
C            15.477253000        14.406095000         8.997369600
C            15.477014000        25.659977000         0.007167300
C            21.976400000         3.152816100         9.018714500
C            21.975564000        14.408321000         9.032354400
C            21.975391000        25.661077000         8.904698700
C            28.474880000         3.153053700         9.018719600
C            28.474167000        14.407118000         9.001880400
C            28.473781000        25.662069000         8.861921400
C            34.972036000         3.152219500         0.012644700
C            34.970949000        14.406447000         9.025813600
C            34.970788000        25.659549000         8.998744900
C             3.874271800         3.418198000         8.957360200
C             3.874263700        14.673499000         8.941354700
C             3.873504800        25.926204000         0.001371600
C            10.370757000         3.420205400         8.996592600
C            10.371941000        14.672880000         8.970508800
C            10.373899000        25.927576000         9.030284100
C            16.869250000         3.420078300         0.038259200
C            16.870273000        14.673495000         8.987082300
C            16.869700000        25.927100000         0.056993900
C            23.368362000         3.419989200         8.938319000
C            23.369085000        14.675321000         8.974207300
C            23.367106000        25.928653000         8.985402000
C            29.867800000         3.420862600         8.984057200
C            29.865709000        14.674400000         8.934554000
C            29.865121000        25.929905000         8.957842200
C            36.364605000         3.420420700         0.023041800
C            36.362964000        14.675026000         0.040546100
C            36.362258000        25.926642000         0.014287400
C             2.017487700         5.564324500         8.963894100
C             2.018315600        16.816875000         8.998475300
C             2.017604900        28.070554000         0.025170500
C             8.514981900         5.563369900         8.953613600
C             8.514682800        16.816734000         9.007544400
C             8.516330000        28.070722000         0.012567700
C            15.012558000         5.563521200         0.006583100
C            15.013469000        16.818438000         8.993934200
C            15.013778000        28.071651000         0.015511000
C            21.511095000         5.564245600         9.001606000
C            21.513305000        16.820789000         9.037752100
C            21.511626000        28.071909000         9.038362100
C            28.011145000         5.564851900         8.979426200
C            28.010147000        16.818626000         9.036894600
C            28.009430000        28.073173000         8.975537300
C            34.506895000         5.564421400         0.008247600
C            34.506915000        16.817151000         8.975253900
C            34.506609000        28.071958000         9.029991900
C             3.409305000         5.832496100         8.920638000
C             3.412005600        17.084483000         8.961734800
C             3.409972900        28.339030000         0.036772400
C             9.906503000         5.831608100         8.920123400
C             9.907422800        17.085305000         9.000665200
C             9.908273400        28.338716000         0.029979400
C            16.404787000         5.832049400         0.026851000
C            16.406256000        17.086412000         9.024134900
C            16.406414000        28.339740000         0.038487900
C            22.903143000         5.833844000         8.920225800
C            22.905774000        17.088059000         8.983331300
C            22.902833000        28.340556000         8.986234100
C            29.402516000         5.832854500         8.911518600
C            29.401927000        17.087868000         8.974900900
C            29.401816000        28.341057000         8.999667100
C            35.900006000         5.832471100         0.017609400
C            35.900145000        17.084765000         8.973150400
C            35.899036000        28.339524000         0.007225600
C             1.552149000         7.974891200         8.847373300
C             1.553997300        19.229520000         8.996036600
C             1.553550400        30.483585000         0.025728500
C             8.049884900         7.975590500         8.956515400
C             8.050908600        19.227684000         8.975768600
C             8.051374400        30.484156000         0.015929500
C            14.548654000         7.974653300         9.008043300
C            14.550550000        19.230738000         8.910885900
C            14.548100000        30.483643000         0.052256500
C            21.048382000         7.976263300         0.016759100
C            21.048518000        19.231111000         8.901993500
C            21.048322000        30.484350000         0.046322400
C            27.545628000         7.975952400         8.861102300
C            27.545951000        19.229761000         8.945183400
C            27.545069000        30.485313000         8.991447100
C            34.042328000         7.973342900         8.924043000
C            34.042470000        19.228803000         8.974633800
C            34.042379000        30.484693000         0.026072900
C             2.945798600         8.243706700         8.923365600
C             2.947402900        19.497346000         8.965276700
C             2.945926600        30.751732000         0.032592400
C             9.442887600         8.243514600         8.944996000
C             9.443635800        19.496190000         8.986812600
C             9.443020600        30.752088000         0.015421400
C            15.940295000         8.243650300         0.019938200
C            15.941999000        19.497280000         8.992784000
C            15.940619000        30.752160000         0.066867800
C            22.441068000         8.244361500         0.007954400
C            22.440833000        19.498542000         8.995901300
C            22.440725000        30.752574000         0.003332000
C            28.938725000         8.244051500         8.933371800
C            28.937704000        19.498411000         9.006106900
C            28.937462000        30.753220000         8.974879900
C            35.435673000         8.242596200         8.962684400
C            35.435632000        19.496343000         8.959447000
C            35.435433000        30.752093000         0.035715400
C             1.088594000        10.386003000         9.010327200
C             1.090204500        21.639716000         8.848077000
C             1.090073100        32.896068000         0.033994000
C             7.586527400        10.385658000         9.022090200
C             7.586558900        21.640918000         8.919563700
C             7.586546100        32.893700000         8.884662700
C            14.082868000        10.386867000         9.012235300
C            14.085549000        21.641664000         9.025982200
C            14.082864000        32.896437000         0.053798700
C            20.583935000        10.389069000         0.037318900
C            20.582400000        21.641925000         9.023580900
C            20.583802000        32.896297000         0.046165100
C            27.081257000        10.387152000         8.998156200
C            27.082280000        21.641479000         8.886620200
C            27.082151000        32.898325000         8.937721800
C            33.578936000        10.387689000         8.927902800
C            33.579182000        21.639144000         8.855070100
C            33.578185000        32.896707000         0.016438600
C             2.480412300        10.654400000         9.000134700
C             2.482238400        21.907212000         8.946098800
C             2.482659900        33.163951000         0.038359400
C             8.979996100        10.653770000         9.036519900
C             8.979662800        21.908982000         8.957716700
C             8.981156500        33.163208000         8.954161600
C            15.475830000        10.655186000         9.017495300
C            15.477401000        21.909607000         9.005000000
C            15.475792000        33.164708000         0.072406200
C            21.977361000        10.657060000         0.041978300
C            21.975514000        21.909413000         9.023785000
C            21.977013000        33.164685000         0.052330900
C            28.474111000        10.655255000         9.010865300
C            28.473047000        21.910370000         8.979553300
C            28.474320000        33.165134000         8.976559200
C            34.970995000        10.655561000         8.983317400
C            34.970240000        21.906966000         8.949420800
C            34.971485000        33.164513000         0.037319400
C             4.802306800         2.347041400         8.996035200
C             4.802901000        13.600116000         8.896786200
C             4.802401800        24.854842000         9.009502200
C            11.299050000         2.348117200         9.021784700
C            11.300386000        13.600975000         8.980188800
C            11.301961000        24.856707000         8.989884000
C            17.797993000         2.348059400         0.041544400
C            17.797748000        13.603712000         8.893935400
C            17.798217000        24.854433000         0.040955700
C            24.296856000         2.348726000         8.974015000
C            24.296428000        13.604282000         9.018783900
C            24.296308000        24.856521000         8.969677400
C            30.794912000         2.348041400         8.989963300
C            30.793542000        13.603055000         8.973442400
C            30.794444000        24.858481000         8.999553800
C            37.292992000         2.348265100         0.025712600
C            37.291637000        13.602535000         0.031123900
C            37.291066000        24.853604000         0.004507300
C             6.194596900         2.615196700         8.990226700
C             6.195594600        13.868294000         8.965050100
C             6.194078700        25.125611000         8.945383000
C            12.691866000         2.616007600         9.017883600
C            12.692624000        13.869537000         8.942717800
C            12.693436000        25.124506000         8.938160400
C            19.191197000         2.616407800         0.034661100
C            19.191349000        13.871948000         8.970070800
C            19.191690000        25.122990000         0.048026700
C            25.689409000         2.616965400         8.983613900
C            25.689438000        13.872250000         9.028996600
C            25.689209000        25.124445000         9.005414600
C            32.187113000         2.615774400         9.013021300
C            32.185785000        13.871206000         8.991391200
C            32.184839000        25.124872000         8.904972700
C            38.685867000         2.616351100         0.024573200
C            38.685205000        13.869800000         0.036522800
C            38.684380000        25.121182000         0.013077800
C             4.338708300         4.758598500         8.897646300
C             4.339428600        16.012753000         8.988065400
C             4.337838200        27.266857000         0.036763500
C            10.835744000         4.757763700         8.913120000
C            10.836405000        16.013064000         9.010619700
C            10.837443000        27.267016000         9.038105500
C            17.333515000         4.760063500         0.023953000
C            17.334698000        16.014627000         9.017012900
C            17.334597000        27.267563000         0.056519300
C            23.833529000         4.760635000         8.868977600
C            23.834070000        16.015920000         8.921856500
C            23.831421000        27.268500000         9.023672800
C            30.332362000         4.758739300         8.871050800
C            30.330877000        16.016194000         8.890852600
C            30.329381000        27.269691000         8.934361200
C            36.829000000         4.760782900         0.019953600
C            36.828169000        16.013972000         9.029608400
C            36.827141000        27.266772000         0.011010000
C             5.729100800         5.027418600         8.956304400
C             5.731640900        16.280923000         9.006123900
C             5.730703500        27.535160000         0.040306900
C            12.227853000         5.025634900         8.978437000
C            12.228663000        16.282047000         8.965393800
C            12.228761000        27.537571000         8.970374700
C            18.726252000         5.027656400         0.009217600
C            18.726455000        16.283690000         8.997140400
C            18.726944000        27.535618000         0.061468600
C            25.224304000         5.028447100         8.971084600
C            25.225592000        16.282828000         8.992990000
C            25.224744000        27.536853000         0.021483800
C            31.723275000         5.028129700         8.959594200
C            31.721471000        16.282346000         8.974182300
C            31.722560000        27.537259000         8.949482100
C            38.221483000         5.029102300         0.017618000
C            38.220921000        16.281309000         9.006602200
C            38.220011000        27.534202000         0.009928000
C             5.265439400         7.439903900         8.938003400
C             5.266608800        18.691736000         8.983487600